p cnf 200 1110
-101 -1 0
-101 -58 0
-101 76 0
-101 72 0
-101 -57 0
-101 52 0
-101 -96 0
-101 10 0
-101 98 0
-101 -38 0
101 1 58 -76 -72 57 -52 96 -10 -98 38 0
-102 -70 0
-102 -6 0
-102 -17 0
-102 -29 0
-102 46 0
-102 5 0
-102 -42 0
-102 82 0
-102 -1 0
-102 -93 0
102 70 6 17 29 -46 -5 42 -82 1 93 0
-103 37 0
-103 4 0
-103 54 0
-103 -59 0
-103 16 0
-103 -88 0
-103 10 0
-103 56 0
-103 13 0
-103 -15 0
103 -37 -4 -54 59 -16 88 -10 -56 -13 15 0
-104 17 0
-104 -26 0
-104 -82 0
-104 68 0
-104 55 0
-104 -98 0
-104 -44 0
-104 -9 0
-104 59 0
-104 -70 0
104 -17 26 82 -68 -55 98 44 9 -59 70 0
-105 -23 0
-105 92 0
-105 -96 0
-105 -74 0
-105 90 0
-105 35 0
-105 -60 0
-105 84 0
-105 -40 0
-105 57 0
105 23 -92 96 74 -90 -35 60 -84 40 -57 0
-106 7 0
-106 -17 0
-106 3 0
-106 -25 0
-106 -98 0
-106 32 0
-106 90 0
-106 28 0
-106 -30 0
-106 -31 0
106 -7 17 -3 25 98 -32 -90 -28 30 31 0
-107 80 0
-107 28 0
-107 -59 0
-107 -67 0
-107 1 0
-107 -46 0
-107 -87 0
-107 -38 0
-107 -10 0
-107 -97 0
107 -80 -28 59 67 -1 46 87 38 10 97 0
-108 -59 0
-108 12 0
-108 6 0
-108 93 0
-108 22 0
-108 92 0
-108 -69 0
-108 56 0
-108 75 0
-108 5 0
108 59 -12 -6 -93 -22 -92 69 -56 -75 -5 0
-109 -61 0
-109 -41 0
-109 45 0
-109 76 0
-109 53 0
-109 -69 0
-109 -26 0
-109 94 0
-109 18 0
-109 23 0
109 61 41 -45 -76 -53 69 26 -94 -18 -23 0
-110 -22 0
-110 52 0
-110 50 0
-110 -9 0
-110 11 0
-110 68 0
-110 -16 0
-110 99 0
-110 -48 0
-110 -23 0
110 22 -52 -50 9 -11 -68 16 -99 48 23 0
101 102 103 104 105 106 107 108 109 110 0
-111 -31 0
-111 93 0
-111 -24 0
-111 -95 0
-111 56 0
-111 -78 0
-111 9 0
-111 -76 0
-111 -54 0
-111 21 0
111 31 -93 24 95 -56 78 -9 76 54 -21 0
-112 99 0
-112 20 0
-112 -25 0
-112 76 0
-112 -72 0
-112 64 0
-112 45 0
-112 -56 0
-112 -27 0
-112 -14 0
112 -99 -20 25 -76 72 -64 -45 56 27 14 0
-113 34 0
-113 74 0
-113 -79 0
-113 -30 0
-113 -99 0
-113 82 0
-113 -31 0
-113 -8 0
-113 37 0
-113 -76 0
113 -34 -74 79 30 99 -82 31 8 -37 76 0
-114 -89 0
-114 74 0
-114 75 0
-114 16 0
-114 -49 0
-114 -23 0
-114 -56 0
-114 -15 0
-114 33 0
-114 -93 0
114 89 -74 -75 -16 49 23 56 15 -33 93 0
-115 -66 0
-115 -37 0
-115 -7 0
-115 20 0
-115 95 0
-115 -38 0
-115 68 0
-115 13 0
-115 -24 0
-115 -16 0
115 66 37 7 -20 -95 38 -68 -13 24 16 0
-116 -33 0
-116 87 0
-116 56 0
-116 -73 0
-116 25 0
-116 22 0
-116 19 0
-116 -58 0
-116 -88 0
-116 17 0
116 33 -87 -56 73 -25 -22 -19 58 88 -17 0
-117 80 0
-117 -60 0
-117 -59 0
-117 -18 0
-117 -21 0
-117 63 0
-117 -87 0
-117 -26 0
-117 -7 0
-117 -67 0
117 -80 60 59 18 21 -63 87 26 7 67 0
-118 49 0
-118 -4 0
-118 -21 0
-118 -93 0
-118 -56 0
-118 86 0
-118 100 0
-118 -5 0
-118 24 0
-118 -53 0
118 -49 4 21 93 56 -86 -100 5 -24 53 0
-119 -17 0
-119 31 0
-119 19 0
-119 51 0
-119 32 0
-119 15 0
-119 4 0
-119 44 0
-119 -97 0
-119 18 0
119 17 -31 -19 -51 -32 -15 -4 -44 97 -18 0
-120 41 0
-120 -63 0
-120 82 0
-120 68 0
-120 -94 0
-120 24 0
-120 46 0
-120 -30 0
-120 -65 0
-120 -54 0
120 -41 63 -82 -68 94 -24 -46 30 65 54 0
111 112 113 114 115 116 117 118 119 120 0
-121 81 0
-121 40 0
-121 -72 0
-121 66 0
-121 26 0
-121 -78 0
-121 58 0
-121 -57 0
-121 -49 0
-121 62 0
121 -81 -40 72 -66 -26 78 -58 57 49 -62 0
-122 -45 0
-122 -87 0
-122 -42 0
-122 -56 0
-122 -58 0
-122 -30 0
-122 -27 0
-122 52 0
-122 92 0
-122 90 0
122 45 87 42 56 58 30 27 -52 -92 -90 0
-123 -91 0
-123 -82 0
-123 -87 0
-123 -66 0
-123 11 0
-123 -48 0
-123 -86 0
-123 5 0
-123 81 0
-123 -68 0
123 91 82 87 66 -11 48 86 -5 -81 68 0
-124 90 0
-124 2 0
-124 74 0
-124 41 0
-124 80 0
-124 -6 0
-124 57 0
-124 88 0
-124 -68 0
-124 -3 0
124 -90 -2 -74 -41 -80 6 -57 -88 68 3 0
-125 -48 0
-125 25 0
-125 100 0
-125 32 0
-125 -43 0
-125 -73 0
-125 45 0
-125 -77 0
-125 14 0
-125 -23 0
125 48 -25 -100 -32 43 73 -45 77 -14 23 0
-126 -10 0
-126 14 0
-126 -17 0
-126 -65 0
-126 18 0
-126 80 0
-126 -87 0
-126 -29 0
-126 32 0
-126 -33 0
126 10 -14 17 65 -18 -80 87 29 -32 33 0
-127 -33 0
-127 62 0
-127 -34 0
-127 30 0
-127 2 0
-127 -10 0
-127 -83 0
-127 56 0
-127 23 0
-127 63 0
127 33 -62 34 -30 -2 10 83 -56 -23 -63 0
-128 -31 0
-128 94 0
-128 -33 0
-128 92 0
-128 24 0
-128 -35 0
-128 47 0
-128 58 0
-128 45 0
-128 69 0
128 31 -94 33 -92 -24 35 -47 -58 -45 -69 0
-129 -83 0
-129 -61 0
-129 -60 0
-129 82 0
-129 -26 0
-129 39 0
-129 89 0
-129 56 0
-129 42 0
-129 -73 0
129 83 61 60 -82 26 -39 -89 -56 -42 73 0
-130 86 0
-130 30 0
-130 -37 0
-130 51 0
-130 -62 0
-130 7 0
-130 9 0
-130 58 0
-130 80 0
-130 -88 0
130 -86 -30 37 -51 62 -7 -9 -58 -80 88 0
121 122 123 124 125 126 127 128 129 130 0
-131 -31 0
-131 10 0
-131 -76 0
-131 96 0
-131 16 0
-131 14 0
-131 77 0
-131 63 0
-131 -80 0
-131 8 0
131 31 -10 76 -96 -16 -14 -77 -63 80 -8 0
-132 88 0
-132 -76 0
-132 -98 0
-132 24 0
-132 -93 0
-132 -47 0
-132 86 0
-132 67 0
-132 -22 0
-132 75 0
132 -88 76 98 -24 93 47 -86 -67 22 -75 0
-133 63 0
-133 6 0
-133 29 0
-133 -4 0
-133 -11 0
-133 67 0
-133 15 0
-133 28 0
-133 47 0
-133 5 0
133 -63 -6 -29 4 11 -67 -15 -28 -47 -5 0
-134 -93 0
-134 12 0
-134 18 0
-134 -45 0
-134 19 0
-134 17 0
-134 -36 0
-134 -39 0
-134 -82 0
-134 -77 0
134 93 -12 -18 45 -19 -17 36 39 82 77 0
-135 -9 0
-135 -21 0
-135 99 0
-135 85 0
-135 -33 0
-135 -13 0
-135 95 0
-135 -23 0
-135 -66 0
-135 -37 0
135 9 21 -99 -85 33 13 -95 23 66 37 0
-136 -7 0
-136 31 0
-136 35 0
-136 -15 0
-136 87 0
-136 67 0
-136 -97 0
-136 -94 0
-136 -88 0
-136 -96 0
136 7 -31 -35 15 -87 -67 97 94 88 96 0
-137 -26 0
-137 40 0
-137 68 0
-137 80 0
-137 -55 0
-137 -81 0
-137 14 0
-137 100 0
-137 -11 0
-137 88 0
137 26 -40 -68 -80 55 81 -14 -100 11 -88 0
-138 57 0
-138 -49 0
-138 20 0
-138 86 0
-138 -59 0
-138 52 0
-138 50 0
-138 92 0
-138 -79 0
-138 -12 0
138 -57 49 -20 -86 59 -52 -50 -92 79 12 0
-139 -85 0
-139 -14 0
-139 29 0
-139 24 0
-139 9 0
-139 -23 0
-139 -94 0
-139 -59 0
-139 98 0
-139 13 0
139 85 14 -29 -24 -9 23 94 59 -98 -13 0
-140 -22 0
-140 18 0
-140 -79 0
-140 52 0
-140 -64 0
-140 -62 0
-140 -80 0
-140 -99 0
-140 90 0
-140 44 0
140 22 -18 79 -52 64 62 80 99 -90 -44 0
131 132 133 134 135 136 137 138 139 140 0
-141 -89 0
-141 44 0
-141 74 0
-141 6 0
-141 12 0
-141 -88 0
-141 -43 0
-141 8 0
-141 20 0
-141 69 0
141 89 -44 -74 -6 -12 88 43 -8 -20 -69 0
-142 1 0
-142 96 0
-142 -44 0
-142 -90 0
-142 65 0
-142 -42 0
-142 -28 0
-142 -53 0
-142 -31 0
-142 52 0
142 -1 -96 44 90 -65 42 28 53 31 -52 0
-143 16 0
-143 53 0
-143 35 0
-143 -90 0
-143 -28 0
-143 80 0
-143 -100 0
-143 -24 0
-143 86 0
-143 56 0
143 -16 -53 -35 90 28 -80 100 24 -86 -56 0
-144 25 0
-144 -89 0
-144 77 0
-144 -59 0
-144 -72 0
-144 3 0
-144 -70 0
-144 85 0
-144 44 0
-144 26 0
144 -25 89 -77 59 72 -3 70 -85 -44 -26 0
-145 -23 0
-145 75 0
-145 -89 0
-145 70 0
-145 94 0
-145 35 0
-145 32 0
-145 59 0
-145 67 0
-145 16 0
145 23 -75 89 -70 -94 -35 -32 -59 -67 -16 0
-146 -13 0
-146 -26 0
-146 3 0
-146 -16 0
-146 -83 0
-146 4 0
-146 -58 0
-146 -18 0
-146 40 0
-146 -51 0
146 13 26 -3 16 83 -4 58 18 -40 51 0
-147 37 0
-147 -91 0
-147 -71 0
-147 64 0
-147 84 0
-147 -82 0
-147 99 0
-147 -69 0
-147 43 0
-147 98 0
147 -37 91 71 -64 -84 82 -99 69 -43 -98 0
-148 -67 0
-148 31 0
-148 84 0
-148 -9 0
-148 1 0
-148 6 0
-148 -54 0
-148 60 0
-148 -45 0
-148 -61 0
148 67 -31 -84 9 -1 -6 54 -60 45 61 0
-149 -93 0
-149 -67 0
-149 20 0
-149 61 0
-149 45 0
-149 51 0
-149 19 0
-149 -35 0
-149 -38 0
-149 99 0
149 93 67 -20 -61 -45 -51 -19 35 38 -99 0
-150 72 0
-150 -80 0
-150 79 0
-150 -30 0
-150 37 0
-150 26 0
-150 53 0
-150 -85 0
-150 54 0
-150 10 0
150 -72 80 -79 30 -37 -26 -53 85 -54 -10 0
141 142 143 144 145 146 147 148 149 150 0
-151 -88 0
-151 99 0
-151 2 0
-151 80 0
-151 58 0
-151 50 0
-151 -64 0
-151 -76 0
-151 79 0
-151 83 0
151 88 -99 -2 -80 -58 -50 64 76 -79 -83 0
-152 -15 0
-152 -71 0
-152 -83 0
-152 9 0
-152 39 0
-152 -19 0
-152 21 0
-152 49 0
-152 -43 0
-152 40 0
152 15 71 83 -9 -39 19 -21 -49 43 -40 0
-153 -58 0
-153 62 0
-153 37 0
-153 -55 0
-153 -36 0
-153 -19 0
-153 -4 0
-153 20 0
-153 -70 0
-153 54 0
153 58 -62 -37 55 36 19 4 -20 70 -54 0
-154 -16 0
-154 45 0
-154 -60 0
-154 -12 0
-154 -27 0
-154 85 0
-154 73 0
-154 -21 0
-154 -19 0
-154 -6 0
154 16 -45 60 12 27 -85 -73 21 19 6 0
-155 -86 0
-155 -18 0
-155 52 0
-155 68 0
-155 -61 0
-155 -83 0
-155 -33 0
-155 -95 0
-155 36 0
-155 89 0
155 86 18 -52 -68 61 83 33 95 -36 -89 0
-156 15 0
-156 49 0
-156 30 0
-156 39 0
-156 59 0
-156 27 0
-156 -22 0
-156 70 0
-156 98 0
-156 -95 0
156 -15 -49 -30 -39 -59 -27 22 -70 -98 95 0
-157 -93 0
-157 -94 0
-157 72 0
-157 96 0
-157 -54 0
-157 -32 0
-157 -24 0
-157 42 0
-157 34 0
-157 -43 0
157 93 94 -72 -96 54 32 24 -42 -34 43 0
-158 -20 0
-158 -45 0
-158 27 0
-158 97 0
-158 98 0
-158 -59 0
-158 -42 0
-158 -25 0
-158 67 0
-158 21 0
158 20 45 -27 -97 -98 59 42 25 -67 -21 0
-159 -38 0
-159 -93 0
-159 36 0
-159 -100 0
-159 -92 0
-159 -87 0
-159 -34 0
-159 -45 0
-159 -83 0
-159 37 0
159 38 93 -36 100 92 87 34 45 83 -37 0
-160 -81 0
-160 -31 0
-160 -75 0
-160 34 0
-160 -53 0
-160 97 0
-160 40 0
-160 35 0
-160 45 0
-160 -2 0
160 81 31 75 -34 53 -97 -40 -35 -45 2 0
151 152 153 154 155 156 157 158 159 160 0
-161 -3 0
-161 4 0
-161 -55 0
-161 -26 0
-161 49 0
-161 -85 0
-161 -84 0
-161 -5 0
-161 66 0
-161 43 0
161 3 -4 55 26 -49 85 84 5 -66 -43 0
-162 96 0
-162 -42 0
-162 -83 0
-162 -90 0
-162 69 0
-162 -85 0
-162 -34 0
-162 66 0
-162 -64 0
-162 -100 0
162 -96 42 83 90 -69 85 34 -66 64 100 0
-163 -29 0
-163 89 0
-163 -37 0
-163 48 0
-163 -78 0
-163 -12 0
-163 -52 0
-163 71 0
-163 87 0
-163 60 0
163 29 -89 37 -48 78 12 52 -71 -87 -60 0
-164 -11 0
-164 -77 0
-164 -53 0
-164 80 0
-164 -28 0
-164 100 0
-164 54 0
-164 -85 0
-164 -25 0
-164 46 0
164 11 77 53 -80 28 -100 -54 85 25 -46 0
-165 -56 0
-165 40 0
-165 64 0
-165 92 0
-165 90 0
-165 88 0
-165 -31 0
-165 22 0
-165 -79 0
-165 -38 0
165 56 -40 -64 -92 -90 -88 31 -22 79 38 0
-166 73 0
-166 -39 0
-166 80 0
-166 -34 0
-166 100 0
-166 44 0
-166 -52 0
-166 -54 0
-166 57 0
-166 98 0
166 -73 39 -80 34 -100 -44 52 54 -57 -98 0
-167 -83 0
-167 -75 0
-167 55 0
-167 61 0
-167 1 0
-167 60 0
-167 89 0
-167 -25 0
-167 -58 0
-167 97 0
167 83 75 -55 -61 -1 -60 -89 25 58 -97 0
-168 -86 0
-168 5 0
-168 49 0
-168 -41 0
-168 -13 0
-168 40 0
-168 -63 0
-168 97 0
-168 -69 0
-168 -38 0
168 86 -5 -49 41 13 -40 63 -97 69 38 0
-169 -67 0
-169 -98 0
-169 -87 0
-169 17 0
-169 -29 0
-169 -16 0
-169 -28 0
-169 82 0
-169 85 0
-169 -95 0
169 67 98 87 -17 29 16 28 -82 -85 95 0
-170 -37 0
-170 58 0
-170 6 0
-170 -34 0
-170 -31 0
-170 -35 0
-170 -53 0
-170 92 0
-170 -51 0
-170 -91 0
170 37 -58 -6 34 31 35 53 -92 51 91 0
161 162 163 164 165 166 167 168 169 170 0
-171 -68 0
-171 4 0
-171 -91 0
-171 57 0
-171 29 0
-171 -63 0
-171 93 0
-171 41 0
-171 -18 0
-171 78 0
171 68 -4 91 -57 -29 63 -93 -41 18 -78 0
-172 -1 0
-172 -3 0
-172 99 0
-172 76 0
-172 83 0
-172 -51 0
-172 67 0
-172 22 0
-172 29 0
-172 88 0
172 1 3 -99 -76 -83 51 -67 -22 -29 -88 0
-173 -83 0
-173 -12 0
-173 56 0
-173 -41 0
-173 -21 0
-173 -6 0
-173 -39 0
-173 78 0
-173 10 0
-173 -68 0
173 83 12 -56 41 21 6 39 -78 -10 68 0
-174 -33 0
-174 -54 0
-174 11 0
-174 -24 0
-174 -26 0
-174 93 0
-174 -57 0
-174 -77 0
-174 -18 0
-174 -29 0
174 33 54 -11 24 26 -93 57 77 18 29 0
-175 -30 0
-175 -35 0
-175 -79 0
-175 -82 0
-175 -49 0
-175 87 0
-175 -56 0
-175 31 0
-175 -54 0
-175 -66 0
175 30 35 79 82 49 -87 56 -31 54 66 0
-176 -76 0
-176 56 0
-176 -32 0
-176 39 0
-176 79 0
-176 12 0
-176 40 0
-176 91 0
-176 98 0
-176 18 0
176 76 -56 32 -39 -79 -12 -40 -91 -98 -18 0
-177 82 0
-177 37 0
-177 5 0
-177 98 0
-177 -88 0
-177 48 0
-177 -13 0
-177 -18 0
-177 68 0
-177 -94 0
177 -82 -37 -5 -98 88 -48 13 18 -68 94 0
-178 -19 0
-178 -34 0
-178 48 0
-178 40 0
-178 65 0
-178 54 0
-178 69 0
-178 -70 0
-178 -10 0
-178 61 0
178 19 34 -48 -40 -65 -54 -69 70 10 -61 0
-179 -23 0
-179 6 0
-179 -32 0
-179 42 0
-179 100 0
-179 34 0
-179 -31 0
-179 -64 0
-179 -54 0
-179 -99 0
179 23 -6 32 -42 -100 -34 31 64 54 99 0
-180 -89 0
-180 83 0
-180 -47 0
-180 -62 0
-180 -49 0
-180 -90 0
-180 17 0
-180 -95 0
-180 45 0
-180 40 0
180 89 -83 47 62 49 90 -17 95 -45 -40 0
171 172 173 174 175 176 177 178 179 180 0
-181 9 0
-181 22 0
-181 48 0
-181 -70 0
-181 -19 0
-181 -99 0
-181 49 0
-181 -63 0
-181 -94 0
-181 11 0
181 -9 -22 -48 70 19 99 -49 63 94 -11 0
-182 -72 0
-182 -89 0
-182 21 0
-182 -78 0
-182 8 0
-182 63 0
-182 37 0
-182 41 0
-182 -19 0
-182 -47 0
182 72 89 -21 78 -8 -63 -37 -41 19 47 0
-183 93 0
-183 100 0
-183 96 0
-183 98 0
-183 -89 0
-183 31 0
-183 78 0
-183 -66 0
-183 -68 0
-183 -82 0
183 -93 -100 -96 -98 89 -31 -78 66 68 82 0
-184 -53 0
-184 67 0
-184 71 0
-184 30 0
-184 62 0
-184 9 0
-184 -77 0
-184 -47 0
-184 -16 0
-184 -22 0
184 53 -67 -71 -30 -62 -9 77 47 16 22 0
-185 -75 0
-185 30 0
-185 -79 0
-185 -29 0
-185 -64 0
-185 10 0
-185 25 0
-185 76 0
-185 99 0
-185 5 0
185 75 -30 79 29 64 -10 -25 -76 -99 -5 0
-186 61 0
-186 -59 0
-186 -13 0
-186 46 0
-186 42 0
-186 11 0
-186 -65 0
-186 90 0
-186 -85 0
-186 -27 0
186 -61 59 13 -46 -42 -11 65 -90 85 27 0
-187 48 0
-187 72 0
-187 -32 0
-187 75 0
-187 -45 0
-187 -30 0
-187 -80 0
-187 73 0
-187 -51 0
-187 19 0
187 -48 -72 32 -75 45 30 80 -73 51 -19 0
-188 16 0
-188 90 0
-188 -47 0
-188 33 0
-188 -82 0
-188 -76 0
-188 -24 0
-188 11 0
-188 -95 0
-188 -26 0
188 -16 -90 47 -33 82 76 24 -11 95 26 0
-189 68 0
-189 1 0
-189 -31 0
-189 -40 0
-189 63 0
-189 -12 0
-189 72 0
-189 -70 0
-189 -65 0
-189 16 0
189 -68 -1 31 40 -63 12 -72 70 65 -16 0
-190 17 0
-190 -22 0
-190 -18 0
-190 -78 0
-190 -37 0
-190 -25 0
-190 36 0
-190 46 0
-190 51 0
-190 -76 0
190 -17 22 18 78 37 25 -36 -46 -51 76 0
181 182 183 184 185 186 187 188 189 190 0
-191 -26 0
-191 2 0
-191 94 0
-191 4 0
-191 -20 0
-191 -95 0
-191 -54 0
-191 -47 0
-191 -49 0
-191 -84 0
191 26 -2 -94 -4 20 95 54 47 49 84 0
-192 -27 0
-192 -28 0
-192 40 0
-192 -34 0
-192 -9 0
-192 38 0
-192 86 0
-192 -43 0
-192 -87 0
-192 8 0
192 27 28 -40 34 9 -38 -86 43 87 -8 0
-193 -78 0
-193 -31 0
-193 67 0
-193 69 0
-193 36 0
-193 -55 0
-193 -76 0
-193 -17 0
-193 -100 0
-193 5 0
193 78 31 -67 -69 -36 55 76 17 100 -5 0
-194 -2 0
-194 43 0
-194 42 0
-194 -25 0
-194 14 0
-194 58 0
-194 -53 0
-194 -95 0
-194 44 0
-194 54 0
194 2 -43 -42 25 -14 -58 53 95 -44 -54 0
-195 5 0
-195 -19 0
-195 -74 0
-195 70 0
-195 -54 0
-195 72 0
-195 35 0
-195 -9 0
-195 93 0
-195 94 0
195 -5 19 74 -70 54 -72 -35 9 -93 -94 0
-196 -27 0
-196 -50 0
-196 96 0
-196 -29 0
-196 39 0
-196 -14 0
-196 -80 0
-196 -46 0
-196 35 0
-196 75 0
196 27 50 -96 29 -39 14 80 46 -35 -75 0
-197 -40 0
-197 29 0
-197 70 0
-197 17 0
-197 28 0
-197 -35 0
-197 46 0
-197 14 0
-197 76 0
-197 -95 0
197 40 -29 -70 -17 -28 35 -46 -14 -76 95 0
-198 18 0
-198 -46 0
-198 76 0
-198 -91 0
-198 -77 0
-198 -81 0
-198 4 0
-198 13 0
-198 70 0
-198 14 0
198 -18 46 -76 91 77 81 -4 -13 -70 -14 0
-199 67 0
-199 36 0
-199 27 0
-199 51 0
-199 37 0
-199 26 0
-199 20 0
-199 73 0
-199 -14 0
-199 -41 0
199 -67 -36 -27 -51 -37 -26 -20 -73 14 41 0
-200 3 0
-200 83 0
-200 30 0
-200 61 0
-200 27 0
-200 -72 0
-200 -77 0
-200 29 0
-200 31 0
-200 47 0
200 -3 -83 -30 -61 -27 72 77 -29 -31 -47 0
191 192 193 194 195 196 197 198 199 200 0
